200
1000
209
208
208
207
205
205
205
204
204
202
202
201
201
195
194
194
193
193
193
192
192
191
190
190
190
189
187
185
184
183
182
181
179
178
176
175
174
174
174
173
172
170
170
167
167
166
166
164
161
159
159
158
158
157
155
153
153
152
152
151
151
148
148
147
147
143
142
142
141
140
140
139
139
138
137
136
136
134
133
133
132
132
131
131
130
129
129
127
125
125
124
123
122
122
122
120
119
118
117
115
114
114
111
109
109
108
108
107
107
106
105
105
104
102
101
98
96
92
92
91
91
91
88
87
87
87
86
82
81
81
80
80
75
75
75
75
73
72
72
70
70
69
69
69
68
66
66
66
65
64
62
61
61
61
59
58
56
55
54
52
51
50
49
49
49
47
47
46
44
44
43
42
42
42
40
40
40
36
36
34
33
32
32
31
31
28
28
27
26
21
21
20
19
19
17
17
16
15
15
14
